U_100_5.txt

VEHICLE     CAPACITY  LOCATIONS  CUSTOMER  OPTIONS  PRIORITIES  NUMTYPS
10		150		121		100		200		3		4

CUSTOMER  DEMAND
0	 15
1	 13
2	 14
3	 17
4	 10
5	 10
6	 18
7	 11
8	 12
9	 11
10	 13
11	 14
12	 18
13	 15
14	 17
15	 14
16	 11
17	 10
18	 14
19	 15
20	 10
21	 12
22	 17
23	 14
24	 10
25	 10
26	 19
27	 12
28	 16
29	 20
30	 17
31	 18
32	 20
33	 14
34	 12
35	 18
36	 14
37	 14
38	 20
39	 16
40	 20
41	 11
42	 16
43	 11
44	 15
45	 17
46	 14
47	 14
48	 15
49	 14
50	 16
51	 12
52	 12
53	 12
54	 19
55	 17
56	 14
57	 20
58	 15
59	 12
60	 16
61	 14
62	 11
63	 16
64	 12
65	 11
66	 19
67	 16
68	 10
69	 20
70	 10
71	 18
72	 15
73	 10
74	 20
75	 19
76	 10
77	 15
78	 16
79	 13
80	 17
81	 19
82	 17
83	 14
84	 13
85	 12
86	 16
87	 13
88	 12
89	 10
90	 20
91	 18
92	 13
93	 20
94	 16
95	 12
96	 16
97	 16
98	 12
99	 17

LOCATION  XCOORD  YCOORD  CAP  READY  DUE  TYP  SERVICETIME
0		47		34		-1		0		720	 0		0
1		44		9		-1		533		653		 2		6
2		26		42		-1		306		546		 2		6
3		5		3		-1		471		591		 2		6
4		15		43		-1		43		163		 2		6
5		1		50		-1		360		720		 2		6
6		16		20		-1		0		360		 2		6
7		14		4		-1		183		423		 2		6
8		16		12		-1		0		360		 2		6
9		12		26		-1		106		346		 2		6
10		29		7		-1		0		360		 2		6
11		4		22		-1		104		224		 2		6
12		16		13		-1		360		720		 2		6
13		32		20		-1		170		290		 2		6
14		26		16		-1		0		360		 2		6
15		12		50		-1		0		360		 2		6
16		23		21		-1		453		693		 2		6
17		8		30		-1		0		360		 2		6
18		38		26		-1		360		720		 2		6
19		33		38		-1		360		720		 2		6
20		46		34		-1		360		720		 2		6
21		1		24		-1		360		720		 2		6
22		35		15		-1		96		216		 2		6
23		46		42		-1		588		708		 2		6
24		22		9		-1		367		487		 2		6
25		24		50		-1		360		720		 2		6
26		29		42		-1		439		559		 2		6
27		21		49		-1		232		352		 2		6
28		42		29		-1		0		360		 2		6
29		28		50		-1		210		330		 2		6
30		43		19		-1		377		497		 2		6
31		18		19		-1		198		438		 2		6
32		23		19		-1		0		360		 2		6
33		47		48		-1		0		360		 2		6
34		28		13		-1		583		703		 2		6
35		46		33		-1		112		232		 2		6
36		44		30		-1		435		555		 2		6
37		25		1		-1		131		251		 2		6
38		43		13		-1		360		720		 2		6
39		4		43		-1		381		501		 2		6
40		6		23		-1		0		360		 2		6
41		44		46		-1		523		643		 2		6
42		14		26		-1		0		360		 2		6
43		19		9		-1		0		360		 2		6
44		39		27		-1		285		525		 2		6
45		1		30		-1		349		589		 2		6
46		12		32		-1		0		360		 2		6
47		43		49		-1		0		360		 2		6
48		26		21		-1		63		183		 2		6
49		4		3		-1		156		396		 2		6
50		38		33		-1		286		526		 2		6
51		27		14		-1		360		720		 2		6
52		3		23		-1		549		669		 2		6
53		22		14		-1		68		188		 2		6
54		14		29		-1		360		720		 2		6
55		27		42		-1		94		214		 2		6
56		15		28		-1		21		141		 2		6
57		40		35		-1		26		266		 2		6
58		40		7		-1		479		719		 2		6
59		38		25		-1		0		360		 2		6
60		1		16		-1		360		720		 2		6
61		9		40		-1		108		228		 2		6
62		41		29		-1		457		697		 2		6
63		14		5		-1		360		720		 2		6
64		20		5		-1		259		499		 2		6
65		32		43		-1		409		649		 2		6
66		3		48		-1		360		720		 2		6
67		38		43		-1		599		719		 2		6
68		17		42		-1		170		290		 2		6
69		18		31		-1		103		223		 2		6
70		18		33		-1		0		360		 2		6
71		22		1		-1		360		720		 2		6
72		13		46		-1		444		684		 2		6
73		6		11		-1		0		360		 2		6
74		49		20		-1		398		518		 2		6
75		25		42		-1		360		720		 2		6
76		13		28		-1		521		641		 2		6
77		5		9		-1		0		360		 2		6
78		25		48		-1		565		685		 2		6
79		29		28		-1		184		304		 2		6
80		16		14		-1		239		479		 2		6
81		6		44		-1		360		720		 2		6
82		37		8		-1		360		720		 2		6
83		3		19		-1		535		655		 2		6
84		1		22		-1		321		561		 2		6
85		22		29		-1		381		501		 2		6
86		8		33		-1		423		543		 2		6
87		19		21		-1		370		490		 2		6
88		33		25		-1		0		360		 2		6
89		19		18		-1		0		360		 2		6
90		25		39		-1		75		315		 2		6
91		20		45		-1		23		143		 2		6
92		16		4		-1		201		321		 2		6
93		13		24		-1		360		720		 2		6
94		9		42		-1		27		147		 2		6
95		42		3		-1		360		720		 2		6
96		8		36		-1		0		360		 2		6
97		35		46		-1		47		167		 2		6
98		9		9		-1		360		720		 2		6
99		21		47		-1		0		360		 2		6
100		1		21		-1		45		285		 2		6
101		30		15		5		0		720		 1		4
102		13		40		5		159		639		 1		4
103		44		28		5		44		524		 1		4
104		13		43		5		0		720		 1		4
105		20		24		5		168		648		 1		4
106		38		8		5		62		542		 1		4
107		30		42		5		36		516		 1		4
108		16		39		4		0		720		 1		4
109		23		18		5		196		676		 1		4
110		33		43		3		0		720		 1		4
111		13		34		4		0		720		 1		4
112		33		23		5		141		621		 1		4
113		20		26		3		0		720		 1		4
114		30		26		5		117		597		 1		4
115		16		19		4		0		720		 1		4
116		32		23		5		0		720		 1		4
117		19		26		5		0		720		 1		4
118		8		30		5		127		607		 1		4
119		35		37		5		55		535		 1		4
120		8		34		3		0		720		 1		4
OPTION  LOCATION  CUSTOMER  PRIO  SERVICETIME   COST
0		106		0		0		2		0
1		109		1		0		2		0
2		101		2		0		2		0
3		115		3		0		2		0
4		116		4		0		2		0
5		114		5		0		2		0
6		117		6		0		2		0
7		105		7		0		2		0
8		117		8		0		2		0
9		108		9		0		2		0
10		102		10		0		2		0
11		104		11		0		2		0
12		107		12		0		2		0
13		118		13		0		2		0
14		117		14		0		2		0
15		112		15		0		2		0
16		112		16		0		2		0
17		117		17		0		2		0
18		106		18		0		2		0
19		103		19		0		2		0
20		1		20		0		5		0
21		2		21		0		5		0
22		3		22		0		5		0
23		4		23		0		5		0
24		5		24		0		5		0
25		6		25		0		5		0
26		7		26		0		5		0
27		8		27		0		5		0
28		9		28		0		5		0
29		10		29		0		5		0
30		11		30		0		5		0
31		12		31		0		5		0
32		13		32		0		5		0
33		14		33		0		5		0
34		15		34		0		5		0
35		16		35		0		5		0
36		17		36		0		5		0
37		18		37		0		5		0
38		19		38		0		5		0
39		20		39		0		5		0
40		21		40		1		5		0
41		120		40		0		2		0
42		22		41		0		5		0
43		118		41		1		2		0
44		23		42		1		5		0
45		114		42		0		2		0
46		24		43		1		5		0
47		101		43		0		2		0
48		25		44		1		5		0
49		101		44		0		2		0
50		26		45		0		5		0
51		104		45		1		2		0
52		27		46		0		5		0
53		102		46		1		2		0
54		28		47		1		5		0
55		108		47		0		2		0
56		29		48		0		5		0
57		112		48		1		2		0
58		30		49		1		5		0
59		101		49		0		2		0
60		31		50		0		5		0
61		113		50		1		2		0
62		32		51		0		5		0
63		105		51		1		2		0
64		33		52		0		5		0
65		107		52		1		2		0
66		34		53		0		5		0
67		112		53		1		2		0
68		35		54		1		5		0
69		116		54		0		2		0
70		36		55		0		5		0
71		109		55		1		2		0
72		37		56		1		5		0
73		101		56		0		2		0
74		38		57		0		5		0
75		114		57		1		2		0
76		39		58		1		5		0
77		108		58		0		2		0
78		40		59		1		5		0
79		103		59		0		2		0
80		41		60		0		5		0
81		107		60		1		2		0
82		118		60		2		2		0
83		42		61		0		5		0
84		115		61		1		2		0
85		113		61		2		2		0
86		43		62		2		5		0
87		115		62		0		2		0
88		110		62		1		2		0
89		44		63		0		5		0
90		112		63		1		2		0
91		120		63		2		2		0
92		45		64		1		5		0
93		120		64		0		2		0
94		108		64		2		2		0
95		46		65		2		5		0
96		118		65		0		2		0
97		116		65		1		2		0
98		47		66		2		5		0
99		114		66		0		2		0
100		119		66		1		2		0
101		48		67		0		5		0
102		116		67		2		2		0
103		105		67		1		2		0
104		49		68		1		5		0
105		118		68		2		2		0
106		105		68		0		2		0
107		50		69		2		5		0
108		114		69		0		2		0
109		118		69		1		2		0
110		51		70		2		5		0
111		116		70		1		2		0
112		109		70		0		2		0
113		52		71		2		5		0
114		115		71		1		2		0
115		101		71		0		2		0
116		53		72		1		5		0
117		106		72		2		2		0
118		114		72		0		2		0
119		54		73		0		5		0
120		113		73		1		2		0
121		114		73		2		2		0
122		55		74		1		5		0
123		111		74		0		2		0
124		108		74		2		2		0
125		56		75		0		5		0
126		105		75		1		2		0
127		118		75		2		2		0
128		57		76		2		5		0
129		110		76		0		2		0
130		114		76		1		2		0
131		58		77		2		5		0
132		102		77		0		2		0
133		103		77		1		2		0
134		59		78		1		5		0
135		118		78		2		2		0
136		109		78		0		2		0
137		60		79		0		5		0
138		120		79		2		2		0
139		103		79		1		2		0
140		61		80		0		5		0
141		62		80		1		5		0
142		102		80		2		2		0
143		63		81		0		5		0
144		64		81		1		5		0
145		103		81		2		2		0
146		65		82		1		5		0
147		66		82		0		5		0
148		119		82		2		2		0
149		67		83		1		5		0
150		68		83		0		5		0
151		119		83		2		2		0
152		69		84		1		5		0
153		70		84		2		5		0
154		109		84		0		2		0
155		71		85		2		5		0
156		72		85		0		5		0
157		114		85		1		2		0
158		73		86		1		5		0
159		74		86		2		5		0
160		106		86		0		2		0
161		75		87		1		5		0
162		76		87		0		5		0
163		113		87		2		2		0
164		77		88		1		5		0
165		78		88		0		5		0
166		120		88		2		2		0
167		79		89		0		5		0
168		80		89		1		5		0
169		119		89		2		2		0
170		81		90		2		5		0
171		82		90		0		5		0
172		101		90		1		2		0
173		83		91		1		5		0
174		84		91		2		5		0
175		115		91		0		2		0
176		85		92		1		5		0
177		86		92		0		5		0
178		115		92		2		2		0
179		87		93		2		5		0
180		88		93		0		5		0
181		109		93		1		2		0
182		89		94		2		5		0
183		90		94		1		5		0
184		117		94		0		2		0
185		91		95		2		5		0
186		92		95		0		5		0
187		111		95		1		2		0
188		93		96		0		5		0
189		94		96		1		5		0
190		119		96		2		2		0
191		95		97		1		5		0
192		96		97		2		5		0
193		106		97		0		2		0
194		97		98		0		5		0
195		98		98		1		5		0
196		107		98		2		2		0
197		99		99		2		5		0
198		100		99		0		5		0
199		103		99		1		2		0
